results_rootrelaxation/bin012_060_007.srr.sol
solution status: optimal solution found
objective value:                     1.33158319870759
_var664_                            0.264943457189014 	(obj:0)
_var668_                            0.281906300484653 	(obj:0)
_var680_                           0.0173667205169626 	(obj:0)
_var705_                              0.1421647819063 	(obj:0)
_var706_                            0.070274636510501 	(obj:0)
_var709_                            0.130048465266559 	(obj:0)
_var723_                            0.260500807754443 	(obj:0)
_var724_                           0.0117124394184169 	(obj:0)
_var727_                            0.177705977382876 	(obj:1)
_var732_                            0.489903069466882 	(obj:0)
_var744_                            0.270193861066236 	(obj:0)
_var753_                            0.418012924071082 	(obj:0)
_var754_                           0.0343295638126018 	(obj:0)
_var759_                           0.0137318255250404 	(obj:0)
_var770_                             0.45032310177706 	(obj:0)
_var774_                           0.0117124394184169 	(obj:0)
_var776_                           0.0391760904684979 	(obj:0)
_var780_                           0.0529079159935382 	(obj:0)
_var783_                            0.135702746365105 	(obj:0)
_var794_                            0.115912762520195 	(obj:0)
_var795_                            0.068255250403877 	(obj:1)
_var797_                            0.335621970920839 	(obj:0)
_var799_                            0.354200323101777 	(obj:0)
_var801_                           0.0840064620355407 	(obj:0)
_var807_                            0.344507269789984 	(obj:0)
_var811_                           0.0969305331179331 	(obj:1)
_var815_                            0.286348949919224 	(obj:1)
_var817_                            0.409935379644588 	(obj:0)
_var828_                            0.223344103392569 	(obj:0)
_var833_                          0.00767366720516871 	(obj:0)
_var837_                            0.393780290791599 	(obj:0)
_var838_                            0.154281098546042 	(obj:0)
_var847_                              0.5359450726979 	(obj:0)
_var852_                           0.0379644588045239 	(obj:0)
_var853_                            0.411147011308562 	(obj:1)
_var854_                           0.0912762520193866 	(obj:0)
_var855_                             0.20032310177706 	(obj:0)
_var856_                            0.106219709208401 	(obj:0)
_var857_                            0.392568659127626 	(obj:0)
_var858_                            0.280694668820678 	(obj:0)
_var860_                           0.0840064620355407 	(obj:0)
_var864_                            0.138933764135702 	(obj:0)
_var865_                             0.29967689822294 	(obj:0)
_var866_                            0.124798061389338 	(obj:0)
_var869_                           0.0173667205169625 	(obj:1)
_var875_                           0.0137318255250395 	(obj:1)
_var879_                            0.244345718901454 	(obj:1)
_var880_                           0.0460420032310179 	(obj:0)
_var882_                              0.1421647819063 	(obj:0)
_var885_                            0.103392568659128 	(obj:0)
_var888_                              0.1421647819063 	(obj:0)
_var890_                            0.428513731825525 	(obj:0)
_var891_                            0.294830371567044 	(obj:0)
_var892_                           0.0323101777059774 	(obj:0)
_var894_                            0.117528271405493 	(obj:0)
_var897_                            0.134491114701131 	(obj:0)
_var898_                            0.122374798061389 	(obj:0)
_var899_                            0.167205169628433 	(obj:0)
_var900_                           0.0157512116316643 	(obj:1)
_var901_                           0.0460420032310176 	(obj:0)
_var902_                           0.0541195476575119 	(obj:0)
_var903_                           0.0137318255250396 	(obj:0)
_var904_                           0.0117124394184165 	(obj:0)
_var905_                           0.0012116316639737 	(obj:0)
