results_rootrelaxation/bin012_060_007.srr.log
SCIP version 8.0.3.5 [precision: 8 byte] [memory: block] [mode: optimized] [LP solver: Soplex 6.0.1.3] [GitHash: 438792519e]
Copyright (c) 2002-2023 Zuse Institute Berlin (ZIB)

External libraries: 
  Readline 8.1         GNU library for command line editing (gnu.org/s/readline)
  Soplex 6.0.1.3       Linear Programming Solver developed at Zuse Institute Berlin (soplex.zib.de) [GitHash: 713be0fe]
  CppAD 20180000.0     Algorithmic Differentiation of C++ algorithms developed by B. Bell (github.com/coin-or/CppAD)
  ZLIB 1.2.11          General purpose compression library by J. Gailly and M. Adler (zlib.net)
  bliss 0.77           Computing Graph Automorphism Groups by T. Junttila and P. Kaski (www.tcs.hut.fi/Software/bliss/)

user parameter file <scip.set> not found - using default parameters

srr/relaxation = TRUE

read problem <instances/bin012_060_007.srr>
============

Original problem: 
original problem has 0 variables (0 bin, 0 int, 0 impl, 0 cont) and 77 constraints

presolving:
presolving (1 rounds: 1 fast, 1 medium, 1 exhaustive):
 0 deleted vars, 0 deleted constraints, 0 added constraints, 0 tightened bounds, 0 added holes, 0 changed sides, 0 changed coefficients
 0 implications, 0 cliques
presolved problem has 0 variables (0 bin, 0 int, 0 impl, 0 cont) and 77 constraints
     77 constraints of type <linear>
Presolving Time: 0.00

 time | node  | left  |LP iter|LP it/n|mem/heur|mdpt |vars |cons |rows |cuts |sepa|confs|strbr|  dualbound   | primalbound  |  gap   | compl. 
  0.0s|     1 |     0 |     1 |     - |   710k |   0 |   1 |  77 |  77 |   0 |  0 |   0 |   0 |      --      |      --      |    Inf | unknown
r 0.0s|     1 |     0 |   792 |     - |simplero|   0 | 656 |  77 |  77 |   0 |  0 |   0 |   0 |      --      | 2.158759e+01 |    Inf | unknown
r 0.0s|     1 |     0 |   832 |     - |simplero|   0 | 667 |  77 |  77 |   0 |  0 |   0 |   0 |      --      | 1.931830e+01 |    Inf | unknown
r 0.0s|     1 |     0 |   884 |     - |simplero|   0 | 678 |  77 |  77 |   0 |  0 |   0 |   0 |      --      | 1.695477e+01 |    Inf | unknown
r 0.0s|     1 |     0 |   956 |     - |simplero|   0 | 689 |  77 |  77 |   0 |  0 |   0 |   0 |      --      | 1.481343e+01 |    Inf | unknown
r 0.1s|     1 |     0 |  1021 |     - |simplero|   0 | 700 |  77 |  77 |   0 |  0 |   0 |   0 |      --      | 1.301690e+01 |    Inf | unknown
r 0.1s|     1 |     0 |  1087 |     - |simplero|   0 | 711 |  77 |  77 |   0 |  0 |   0 |   0 |      --      | 1.108049e+01 |    Inf | unknown
r 0.1s|     1 |     0 |  1132 |     - |simplero|   0 | 722 |  77 |  77 |   0 |  0 |   0 |   0 |      --      | 1.011934e+01 |    Inf | unknown
r 0.1s|     1 |     0 |  1216 |     - |simplero|   0 | 733 |  77 |  77 |   0 |  0 |   0 |   0 |      --      | 6.952236e+00 |    Inf | unknown
r 0.1s|     1 |     0 |  1256 |     - |simplero|   0 | 744 |  77 |  77 |   0 |  0 |   0 |   0 |      --      | 6.115378e+00 |    Inf | unknown
r 0.1s|     1 |     0 |  1277 |     - |simplero|   0 | 744 |  77 |  77 |   0 |  0 |   0 |   0 |      --      | 5.933342e+00 |    Inf | unknown
r 0.1s|     1 |     0 |  1289 |     - |simplero|   0 | 744 |  77 |  77 |   0 |  0 |   0 |   0 |      --      | 5.918611e+00 |    Inf | unknown
r 0.1s|     1 |     0 |  1322 |     - |simplero|   0 | 755 |  77 |  77 |   0 |  0 |   0 |   0 |      --      | 5.392806e+00 |    Inf | unknown
r 0.1s|     1 |     0 |  1347 |     - |simplero|   0 | 755 |  77 |  77 |   0 |  0 |   0 |   0 |      --      | 5.187394e+00 |    Inf | unknown
r 0.1s|     1 |     0 |  1388 |     - |simplero|   0 | 766 |  77 |  77 |   0 |  0 |   0 |   0 |      --      | 4.761990e+00 |    Inf | unknown
 time | node  | left  |LP iter|LP it/n|mem/heur|mdpt |vars |cons |rows |cuts |sepa|confs|strbr|  dualbound   | primalbound  |  gap   | compl. 
r 0.1s|     1 |     0 |  1400 |     - |simplero|   0 | 766 |  77 |  77 |   0 |  0 |   0 |   0 |      --      | 4.696179e+00 |    Inf | unknown
r 0.1s|     1 |     0 |  1401 |     - |simplero|   0 | 766 |  77 |  77 |   0 |  0 |   0 |   0 |      --      | 4.696176e+00 |    Inf | unknown
r 0.1s|     1 |     0 |  1425 |     - |simplero|   0 | 777 |  77 |  77 |   0 |  0 |   0 |   0 |      --      | 4.283534e+00 |    Inf | unknown
r 0.1s|     1 |     0 |  1434 |     - |simplero|   0 | 777 |  77 |  77 |   0 |  0 |   0 |   0 |      --      | 4.253671e+00 |    Inf | unknown
r 0.1s|     1 |     0 |  1435 |     - |simplero|   0 | 777 |  77 |  77 |   0 |  0 |   0 |   0 |      --      | 4.251900e+00 |    Inf | unknown
r 0.1s|     1 |     0 |  1476 |     - |simplero|   0 | 788 |  77 |  77 |   0 |  0 |   0 |   0 |      --      | 3.716868e+00 |    Inf | unknown
r 0.1s|     1 |     0 |  1485 |     - |simplero|   0 | 788 |  77 |  77 |   0 |  0 |   0 |   0 |      --      | 3.650550e+00 |    Inf | unknown
r 0.1s|     1 |     0 |  1492 |     - |simplero|   0 | 788 |  77 |  77 |   0 |  0 |   0 |   0 |      --      | 3.631129e+00 |    Inf | unknown
r 0.1s|     1 |     0 |  1514 |     - |simplero|   0 | 799 |  77 |  77 |   0 |  0 |   0 |   0 |      --      | 3.159199e+00 |    Inf | unknown
r 0.1s|     1 |     0 |  1530 |     - |simplero|   0 | 799 |  77 |  77 |   0 |  0 |   0 |   0 |      --      | 3.074627e+00 |    Inf | unknown
r 0.1s|     1 |     0 |  1565 |     - |simplero|   0 | 810 |  77 |  77 |   0 |  0 |   0 |   0 |      --      | 2.756687e+00 |    Inf | unknown
r 0.1s|     1 |     0 |  1570 |     - |simplero|   0 | 810 |  77 |  77 |   0 |  0 |   0 |   0 |      --      | 2.734339e+00 |    Inf | unknown
r 0.1s|     1 |     0 |  1619 |     - |simplero|   0 | 821 |  77 |  77 |   0 |  0 |   0 |   0 |      --      | 2.248533e+00 |    Inf | unknown
r 0.1s|     1 |     0 |  1628 |     - |simplero|   0 | 821 |  77 |  77 |   0 |  0 |   0 |   0 |      --      | 2.212095e+00 |    Inf | unknown
r 0.1s|     1 |     0 |  1661 |     - |simplero|   0 | 832 |  77 |  77 |   0 |  0 |   0 |   0 |      --      | 2.055957e+00 |    Inf | unknown
 time | node  | left  |LP iter|LP it/n|mem/heur|mdpt |vars |cons |rows |cuts |sepa|confs|strbr|  dualbound   | primalbound  |  gap   | compl. 
r 0.1s|     1 |     0 |  1668 |     - |simplero|   0 | 832 |  77 |  77 |   0 |  0 |   0 |   0 |      --      | 2.046919e+00 |    Inf | unknown
r 0.1s|     1 |     0 |  1694 |     - |simplero|   0 | 843 |  77 |  77 |   0 |  0 |   0 |   0 |      --      | 1.780551e+00 |    Inf | unknown
r 0.1s|     1 |     0 |  1713 |     - |simplero|   0 | 854 |  77 |  77 |   0 |  0 |   0 |   0 |      --      | 1.699002e+00 |    Inf | unknown
r 0.1s|     1 |     0 |  1719 |     - |simplero|   0 | 854 |  77 |  77 |   0 |  0 |   0 |   0 |      --      | 1.671308e+00 |    Inf | unknown
r 0.1s|     1 |     0 |  1750 |     - |simplero|   0 | 863 |  77 |  77 |   0 |  0 |   0 |   0 |      --      | 1.517214e+00 |    Inf | unknown
  0.1s|     1 |     0 |  1751 |     - |  4197k |   0 | 863 |  77 |  77 |   0 |  0 |   0 |   0 |      --      | 1.517214e+00 |    Inf | unknown
r 0.1s|     1 |     0 |  1751 |     - |simplero|   0 | 863 |  77 |  77 |   0 |  0 |   0 |   0 |      --      | 1.517091e+00 |    Inf | unknown
r 0.1s|     1 |     0 |  1780 |     - |simplero|   0 | 874 |  77 |  77 |   0 |  0 |   0 |   0 |      --      | 1.411570e+00 |    Inf | unknown
r 0.1s|     1 |     0 |  1804 |     - |simplero|   0 | 882 |  77 |  77 |   0 |  0 |   0 |   0 |      --      | 1.392513e+00 |    Inf | unknown
r 0.1s|     1 |     0 |  1808 |     - |simplero|   0 | 882 |  77 |  77 |   0 |  0 |   0 |   0 |      --      | 1.389602e+00 |    Inf | unknown
r 0.1s|     1 |     0 |  1815 |     - |simplero|   0 | 888 |  77 |  77 |   0 |  0 |   0 |   0 |      --      | 1.373052e+00 |    Inf | unknown
r 0.1s|     1 |     0 |  1835 |     - |simplero|   0 | 894 |  77 |  77 |   0 |  0 |   0 |   0 |      --      | 1.344354e+00 |    Inf | unknown
r 0.1s|     1 |     0 |  1843 |     - |simplero|   0 | 894 |  77 |  77 |   0 |  0 |   0 |   0 |      --      | 1.343899e+00 |    Inf | unknown
r 0.1s|     1 |     0 |  1849 |     - |simplero|   0 | 897 |  77 |  77 |   0 |  0 |   0 |   0 |      --      | 1.338384e+00 |    Inf | unknown
r 0.1s|     1 |     0 |  1853 |     - |simplero|   0 | 899 |  77 |  77 |   0 |  0 |   0 |   0 |      --      | 1.334858e+00 |    Inf | unknown
 time | node  | left  |LP iter|LP it/n|mem/heur|mdpt |vars |cons |rows |cuts |sepa|confs|strbr|  dualbound   | primalbound  |  gap   | compl. 
r 0.1s|     1 |     0 |  1856 |     - |simplero|   0 | 900 |  77 |  77 |   0 |  0 |   0 |   0 |      --      | 1.333333e+00 |    Inf | unknown
r 0.1s|     1 |     0 |  1861 |     - |simplero|   0 | 901 |  77 |  77 |   0 |  0 |   0 |   0 |      --      | 1.332875e+00 |    Inf | unknown
r 0.1s|     1 |     0 |  1865 |     - |simplero|   0 | 903 |  77 |  77 |   0 |  0 |   0 |   0 |      --      | 1.331928e+00 |    Inf | unknown
r 0.1s|     1 |     0 |  1868 |     - |simplero|   0 | 904 |  77 |  77 |   0 |  0 |   0 |   0 |      --      | 1.331643e+00 |    Inf | unknown
r 0.1s|     1 |     0 |  1869 |     - |simplero|   0 | 905 |  77 |  77 |   0 |  0 |   0 |   0 |      --      | 1.331593e+00 |    Inf | unknown
r 0.1s|     1 |     0 |  1870 |     - |simplero|   0 | 906 |  77 |  77 |   0 |  0 |   0 |   0 |      --      | 1.331583e+00 |    Inf | unknown
  0.1s|     1 |     0 |  1870 |     - |  4381k |   0 | 906 |  77 |  77 |   0 |  0 |   0 |   0 | 1.331583e+00 | 1.331583e+00 |   0.00%| unknown
  0.1s|     1 |     0 |  1870 |     - |  4381k |   0 | 906 |  77 |  77 |   0 |  0 |   0 |   0 | 1.331583e+00 | 1.331583e+00 |   0.00%| unknown

SCIP Status        : problem is solved [optimal solution found]
Solving Time (sec) : 0.12
Solving Nodes      : 1
Primal Bound       : +1.33158319870759e+00 (49 solutions)
Dual Bound         : +1.33158319870759e+00
Gap                : 0.00 %

written transformed problem to file <results_rootrelaxation/bin012_060_007.srr.lp>
written transformed problem to file <results_rootrelaxation/bin012_060_007.srr.cip>


SCIP version 8.0.3.5 [precision: 8 byte] [memory: block] [mode: optimized] [LP solver: Soplex 6.0.1.3] [GitHash: 438792519e]
Copyright (c) 2002-2023 Zuse Institute Berlin (ZIB)

External libraries: 
  Readline 8.1         GNU library for command line editing (gnu.org/s/readline)
  Soplex 6.0.1.3       Linear Programming Solver developed at Zuse Institute Berlin (soplex.zib.de) [GitHash: 713be0fe]
  CppAD 20180000.0     Algorithmic Differentiation of C++ algorithms developed by B. Bell (github.com/coin-or/CppAD)
  ZLIB 1.2.11          General purpose compression library by J. Gailly and M. Adler (zlib.net)
  bliss 0.77           Computing Graph Automorphism Groups by T. Junttila and P. Kaski (www.tcs.hut.fi/Software/bliss/)

user parameter file <scip.set> not found - using default parameters

srr/relaxation = TRUE

read problem <instances/bin012_060_007.srr>
============

Original problem: 
original problem has 0 variables (0 bin, 0 int, 0 impl, 0 cont) and 77 constraints

presolving:
presolving (1 rounds: 1 fast, 1 medium, 1 exhaustive):
 0 deleted vars, 0 deleted constraints, 0 added constraints, 0 tightened bounds, 0 added holes, 0 changed sides, 0 changed coefficients
 0 implications, 0 cliques
presolved problem has 0 variables (0 bin, 0 int, 0 impl, 0 cont) and 77 constraints
     77 constraints of type <linear>
Presolving Time: 0.00

 time | node  | left  |LP iter|LP it/n|mem/heur|mdpt |vars |cons |rows |cuts |sepa|confs|strbr|  dualbound   | primalbound  |  gap   | compl. 
  0.0s|     1 |     0 |     1 |     - |   710k |   0 |   1 |  77 |  77 |   0 |  0 |   0 |   0 |      --      |      --      |    Inf | unknown
r 0.0s|     1 |     0 |   792 |     - |simplero|   0 | 656 |  77 |  77 |   0 |  0 |   0 |   0 |      --      | 2.158759e+01 |    Inf | unknown
r 0.1s|     1 |     0 |   832 |     - |simplero|   0 | 667 |  77 |  77 |   0 |  0 |   0 |   0 |      --      | 1.931830e+01 |    Inf | unknown
r 0.1s|     1 |     0 |   884 |     - |simplero|   0 | 678 |  77 |  77 |   0 |  0 |   0 |   0 |      --      | 1.695477e+01 |    Inf | unknown
r 0.1s|     1 |     0 |   956 |     - |simplero|   0 | 689 |  77 |  77 |   0 |  0 |   0 |   0 |      --      | 1.481343e+01 |    Inf | unknown
r 0.1s|     1 |     0 |  1021 |     - |simplero|   0 | 700 |  77 |  77 |   0 |  0 |   0 |   0 |      --      | 1.301690e+01 |    Inf | unknown
r 0.1s|     1 |     0 |  1087 |     - |simplero|   0 | 711 |  77 |  77 |   0 |  0 |   0 |   0 |      --      | 1.108049e+01 |    Inf | unknown
r 0.1s|     1 |     0 |  1132 |     - |simplero|   0 | 722 |  77 |  77 |   0 |  0 |   0 |   0 |      --      | 1.011934e+01 |    Inf | unknown
r 0.1s|     1 |     0 |  1216 |     - |simplero|   0 | 733 |  77 |  77 |   0 |  0 |   0 |   0 |      --      | 6.952236e+00 |    Inf | unknown
r 0.1s|     1 |     0 |  1256 |     - |simplero|   0 | 744 |  77 |  77 |   0 |  0 |   0 |   0 |      --      | 6.115378e+00 |    Inf | unknown
r 0.1s|     1 |     0 |  1277 |     - |simplero|   0 | 744 |  77 |  77 |   0 |  0 |   0 |   0 |      --      | 5.933342e+00 |    Inf | unknown
r 0.1s|     1 |     0 |  1289 |     - |simplero|   0 | 744 |  77 |  77 |   0 |  0 |   0 |   0 |      --      | 5.918611e+00 |    Inf | unknown
r 0.1s|     1 |     0 |  1322 |     - |simplero|   0 | 755 |  77 |  77 |   0 |  0 |   0 |   0 |      --      | 5.392806e+00 |    Inf | unknown
r 0.1s|     1 |     0 |  1347 |     - |simplero|   0 | 755 |  77 |  77 |   0 |  0 |   0 |   0 |      --      | 5.187394e+00 |    Inf | unknown
r 0.1s|     1 |     0 |  1388 |     - |simplero|   0 | 766 |  77 |  77 |   0 |  0 |   0 |   0 |      --      | 4.761990e+00 |    Inf | unknown
 time | node  | left  |LP iter|LP it/n|mem/heur|mdpt |vars |cons |rows |cuts |sepa|confs|strbr|  dualbound   | primalbound  |  gap   | compl. 
r 0.1s|     1 |     0 |  1400 |     - |simplero|   0 | 766 |  77 |  77 |   0 |  0 |   0 |   0 |      --      | 4.696179e+00 |    Inf | unknown
r 0.1s|     1 |     0 |  1401 |     - |simplero|   0 | 766 |  77 |  77 |   0 |  0 |   0 |   0 |      --      | 4.696176e+00 |    Inf | unknown
r 0.1s|     1 |     0 |  1425 |     - |simplero|   0 | 777 |  77 |  77 |   0 |  0 |   0 |   0 |      --      | 4.283534e+00 |    Inf | unknown
r 0.1s|     1 |     0 |  1434 |     - |simplero|   0 | 777 |  77 |  77 |   0 |  0 |   0 |   0 |      --      | 4.253671e+00 |    Inf | unknown
r 0.1s|     1 |     0 |  1435 |     - |simplero|   0 | 777 |  77 |  77 |   0 |  0 |   0 |   0 |      --      | 4.251900e+00 |    Inf | unknown
r 0.1s|     1 |     0 |  1476 |     - |simplero|   0 | 788 |  77 |  77 |   0 |  0 |   0 |   0 |      --      | 3.716868e+00 |    Inf | unknown
r 0.1s|     1 |     0 |  1485 |     - |simplero|   0 | 788 |  77 |  77 |   0 |  0 |   0 |   0 |      --      | 3.650550e+00 |    Inf | unknown
r 0.1s|     1 |     0 |  1492 |     - |simplero|   0 | 788 |  77 |  77 |   0 |  0 |   0 |   0 |      --      | 3.631129e+00 |    Inf | unknown
r 0.1s|     1 |     0 |  1514 |     - |simplero|   0 | 799 |  77 |  77 |   0 |  0 |   0 |   0 |      --      | 3.159199e+00 |    Inf | unknown
r 0.1s|     1 |     0 |  1530 |     - |simplero|   0 | 799 |  77 |  77 |   0 |  0 |   0 |   0 |      --      | 3.074627e+00 |    Inf | unknown
r 0.1s|     1 |     0 |  1565 |     - |simplero|   0 | 810 |  77 |  77 |   0 |  0 |   0 |   0 |      --      | 2.756687e+00 |    Inf | unknown
r 0.1s|     1 |     0 |  1570 |     - |simplero|   0 | 810 |  77 |  77 |   0 |  0 |   0 |   0 |      --      | 2.734339e+00 |    Inf | unknown
r 0.1s|     1 |     0 |  1619 |     - |simplero|   0 | 821 |  77 |  77 |   0 |  0 |   0 |   0 |      --      | 2.248533e+00 |    Inf | unknown
r 0.1s|     1 |     0 |  1628 |     - |simplero|   0 | 821 |  77 |  77 |   0 |  0 |   0 |   0 |      --      | 2.212095e+00 |    Inf | unknown
r 0.1s|     1 |     0 |  1661 |     - |simplero|   0 | 832 |  77 |  77 |   0 |  0 |   0 |   0 |      --      | 2.055957e+00 |    Inf | unknown
 time | node  | left  |LP iter|LP it/n|mem/heur|mdpt |vars |cons |rows |cuts |sepa|confs|strbr|  dualbound   | primalbound  |  gap   | compl. 
r 0.1s|     1 |     0 |  1668 |     - |simplero|   0 | 832 |  77 |  77 |   0 |  0 |   0 |   0 |      --      | 2.046919e+00 |    Inf | unknown
r 0.1s|     1 |     0 |  1694 |     - |simplero|   0 | 843 |  77 |  77 |   0 |  0 |   0 |   0 |      --      | 1.780551e+00 |    Inf | unknown
r 0.1s|     1 |     0 |  1713 |     - |simplero|   0 | 854 |  77 |  77 |   0 |  0 |   0 |   0 |      --      | 1.699002e+00 |    Inf | unknown
r 0.1s|     1 |     0 |  1719 |     - |simplero|   0 | 854 |  77 |  77 |   0 |  0 |   0 |   0 |      --      | 1.671308e+00 |    Inf | unknown
r 0.1s|     1 |     0 |  1750 |     - |simplero|   0 | 863 |  77 |  77 |   0 |  0 |   0 |   0 |      --      | 1.517214e+00 |    Inf | unknown
  0.1s|     1 |     0 |  1751 |     - |  4197k |   0 | 863 |  77 |  77 |   0 |  0 |   0 |   0 |      --      | 1.517214e+00 |    Inf | unknown
r 0.1s|     1 |     0 |  1751 |     - |simplero|   0 | 863 |  77 |  77 |   0 |  0 |   0 |   0 |      --      | 1.517091e+00 |    Inf | unknown
r 0.1s|     1 |     0 |  1780 |     - |simplero|   0 | 874 |  77 |  77 |   0 |  0 |   0 |   0 |      --      | 1.411570e+00 |    Inf | unknown
r 0.1s|     1 |     0 |  1804 |     - |simplero|   0 | 882 |  77 |  77 |   0 |  0 |   0 |   0 |      --      | 1.392513e+00 |    Inf | unknown
r 0.1s|     1 |     0 |  1808 |     - |simplero|   0 | 882 |  77 |  77 |   0 |  0 |   0 |   0 |      --      | 1.389602e+00 |    Inf | unknown
r 0.1s|     1 |     0 |  1815 |     - |simplero|   0 | 888 |  77 |  77 |   0 |  0 |   0 |   0 |      --      | 1.373052e+00 |    Inf | unknown
r 0.1s|     1 |     0 |  1835 |     - |simplero|   0 | 894 |  77 |  77 |   0 |  0 |   0 |   0 |      --      | 1.344354e+00 |    Inf | unknown
r 0.1s|     1 |     0 |  1843 |     - |simplero|   0 | 894 |  77 |  77 |   0 |  0 |   0 |   0 |      --      | 1.343899e+00 |    Inf | unknown
r 0.1s|     1 |     0 |  1849 |     - |simplero|   0 | 897 |  77 |  77 |   0 |  0 |   0 |   0 |      --      | 1.338384e+00 |    Inf | unknown
r 0.1s|     1 |     0 |  1853 |     - |simplero|   0 | 899 |  77 |  77 |   0 |  0 |   0 |   0 |      --      | 1.334858e+00 |    Inf | unknown
 time | node  | left  |LP iter|LP it/n|mem/heur|mdpt |vars |cons |rows |cuts |sepa|confs|strbr|  dualbound   | primalbound  |  gap   | compl. 
r 0.1s|     1 |     0 |  1856 |     - |simplero|   0 | 900 |  77 |  77 |   0 |  0 |   0 |   0 |      --      | 1.333333e+00 |    Inf | unknown
r 0.1s|     1 |     0 |  1861 |     - |simplero|   0 | 901 |  77 |  77 |   0 |  0 |   0 |   0 |      --      | 1.332875e+00 |    Inf | unknown
r 0.1s|     1 |     0 |  1865 |     - |simplero|   0 | 903 |  77 |  77 |   0 |  0 |   0 |   0 |      --      | 1.331928e+00 |    Inf | unknown
r 0.1s|     1 |     0 |  1868 |     - |simplero|   0 | 904 |  77 |  77 |   0 |  0 |   0 |   0 |      --      | 1.331643e+00 |    Inf | unknown
r 0.1s|     1 |     0 |  1869 |     - |simplero|   0 | 905 |  77 |  77 |   0 |  0 |   0 |   0 |      --      | 1.331593e+00 |    Inf | unknown
r 0.1s|     1 |     0 |  1870 |     - |simplero|   0 | 906 |  77 |  77 |   0 |  0 |   0 |   0 |      --      | 1.331583e+00 |    Inf | unknown
  0.1s|     1 |     0 |  1870 |     - |  4381k |   0 | 906 |  77 |  77 |   0 |  0 |   0 |   0 | 1.331583e+00 | 1.331583e+00 |   0.00%| unknown
  0.1s|     1 |     0 |  1870 |     - |  4381k |   0 | 906 |  77 |  77 |   0 |  0 |   0 |   0 | 1.331583e+00 | 1.331583e+00 |   0.00%| unknown

SCIP Status        : problem is solved [optimal solution found]
Solving Time (sec) : 0.12
Solving Nodes      : 1
Primal Bound       : +1.33158319870759e+00 (49 solutions)
Dual Bound         : +1.33158319870759e+00
Gap                : 0.00 %

written transformed problem to file <results_rootrelaxation/bin012_060_007.srr.lp>
written transformed problem to file <results_rootrelaxation/bin012_060_007.srr.cip>

written solution information to file <results_rootrelaxation/bin012_060_007.srr.sol>



